
Log started (V11.0.0) Sat May 17 19:57:29 2008

Tried aggregator 1 time.
Reduced MIP has 150 rows, 5001 columns, and 10050 nonzeros.
Presolve time =    0.03 sec.
Clique table members: 100.
MIP emphasis: balance optimality and feasibility.
MIP search method: dynamic search.
Parallel mode: none, using 1 thread.
Root relaxation solution time =    0.23 sec.

        Nodes                                         Cuts/
   Node  Left     Objective  IInf  Best Integer     Best Node    ItCnt     Gap

*     0+    0                       105146.0000     2003.9597      520   98.09%
*     0+    0                         2012.0000     2003.9597      520    0.40%
      0     0     2003.9997    86     2012.0000      Fract: 2      539    0.40%
      0     0     2004.0971    94     2012.0000     2004.0971      560    0.39%
*     0+    0                         2010.0000     2004.0971      560    0.29%
      0     2     2005.0000    87     2010.0000     2004.0971      560    0.29%
    100    22        cutoff           2010.0000     2005.0000    11796    0.25%
    200    36        cutoff           2010.0000     2005.0000    27091    0.25%
    300    48        cutoff           2010.0000     2005.0000    30596    0.25%
    400    70     2009.0000    62     2010.0000     2005.0000    44094    0.25%
    500    76        cutoff           2010.0000     2005.0000    67448    0.25%
*   531+   56                         2009.0000     2006.6429    72671    0.12%

Clique cuts applied:  1
Cover cuts applied:  1
Implied bound cuts applied:  1
Gomory fractional cuts applied:  4

Solution pool: 4 solutions saved.

MIP - Integer optimal solution:  Objective = 2.0090000000e+003
Solution time =   14.30 sec.  Iterations = 72680  Nodes = 531 (56)


Incumbent solution
Variable Name           Solution Value
Cmax                       2009.000000
X_1_31                        1.000000
X_2_24                        1.000000
X_3_7                         1.000000
X_4_39                        1.000000
X_5_9                         1.000000
X_6_32                        1.000000
X_7_35                        1.000000
X_8_26                        1.000000
X_9_19                        1.000000
X_10_25                       1.000000
X_11_49                       1.000000
X_12_30                       1.000000
X_13_48                       1.000000
X_14_20                       1.000000
X_15_42                       1.000000
X_16_20                       1.000000
X_17_3                        1.000000
X_18_4                        1.000000
X_19_35                       1.000000
X_20_40                       1.000000
X_21_47                       1.000000
X_22_41                       1.000000
X_23_15                       1.000000
X_24_41                       1.000000
X_25_23                       1.000000
X_26_19                       1.000000
X_27_47                       1.000000
X_28_45                       1.000000
X_29_40                       1.000000
X_30_14                       1.000000
X_31_37                       1.000000
X_32_1                        1.000000
X_33_1                        1.000000
X_34_14                       1.000000
X_35_44                       1.000000
X_36_6                        1.000000
X_37_33                       1.000000
X_38_18                       1.000000
X_39_29                       1.000000
X_40_21                       1.000000
X_41_8                        1.000000
X_42_16                       1.000000
X_43_29                       1.000000
X_44_21                       1.000000
X_45_23                       1.000000
X_46_39                       1.000000
X_47_24                       1.000000
X_48_34                       1.000000
X_49_11                       1.000000
X_50_3                        1.000000
X_51_2                        1.000000
X_52_28                       1.000000
X_53_27                       1.000000
X_54_13                       1.000000
X_55_2                        1.000000
X_56_10                       1.000000
X_57_30                       1.000000
X_58_17                       1.000000
X_59_37                       1.000000
X_60_12                       1.000000
X_61_43                       1.000000
X_62_48                       1.000000
X_63_50                       1.000000
X_64_16                       1.000000
X_65_27                       1.000000
X_66_46                       1.000000
X_67_46                       1.000000
X_68_18                       1.000000
X_69_32                       1.000000
X_70_31                       1.000000
X_71_6                        1.000000
X_72_25                       1.000000
X_73_5                        1.000000
X_74_9                        1.000000
X_75_10                       1.000000
X_76_42                       1.000000
X_77_5                        1.000000
X_78_50                       1.000000
X_79_7                        1.000000
X_80_22                       1.000000
X_81_33                       1.000000
X_82_36                       1.000000
X_83_28                       1.000000
X_84_11                       1.000000
X_85_49                       1.000000
X_86_44                       1.000000
X_87_15                       1.000000
X_88_17                       1.000000
X_89_43                       1.000000
X_90_45                       1.000000
X_91_12                       1.000000
X_92_22                       1.000000
X_93_26                       1.000000
X_94_36                       1.000000
X_95_4                        1.000000
X_96_38                       1.000000
X_97_13                       1.000000
X_98_8                        1.000000
X_99_34                       1.000000
X_100_38                      1.000000
All other variables in the range 1-5001 are 0.
